NAME: n60q40E.tsp, 60 nodes, semilla 444
COMMENT: Problema aleatorio de norma euclidea
DIMENSION: 60
CAPACITY: 40
EDGE_WEIGHT_TYPE: EUC_2D
NODE_COORD_SECTION
1   0.0000   0.0000
2 152.0000 -11.0000
3 -319.0000 -425.0000
4  62.0000 -493.0000
5  28.0000 -462.0000
6 115.0000  65.0000
7 390.0000 220.0000
8 319.0000 -96.0000
9  54.0000 190.0000
10 -415.0000 -149.0000
11 142.0000 -95.0000
12 -352.0000 -79.0000
13 -72.0000  67.0000
14 491.0000 -385.0000
15 -319.0000 425.0000
16  12.0000 421.0000
17 157.0000 -354.0000
18 338.0000 336.0000
19 -477.0000 243.0000
20 495.0000 361.0000
21 -326.0000 424.0000
22 -377.0000 259.0000
23  12.0000 -215.0000
24 434.0000 386.0000
25 450.0000 -292.0000
26 -340.0000 467.0000
27 161.0000 210.0000
28 243.0000  -2.0000
29 115.0000 365.0000
30 -280.0000 -301.0000
31 -176.0000 -191.0000
32 -126.0000  36.0000
33 367.0000 -115.0000
34 -177.0000 -489.0000
35 200.0000  52.0000
36 461.0000 -200.0000
37 -444.0000 471.0000
38 296.0000 124.0000
39 -273.0000 485.0000
40 -100.0000 -200.0000
41 -396.0000 294.0000
42 -474.0000 -69.0000
43 -455.0000 -492.0000
44 134.0000   1.0000
45 -75.0000 163.0000
46 -128.0000 -382.0000
47  56.0000 -77.0000
48 -453.0000 -78.0000
49 -462.0000 284.0000
50 448.0000  90.0000
51 -433.0000 137.0000
52 367.0000 -480.0000
53 104.0000 343.0000
54 -305.0000 -54.0000
55 277.0000 136.0000
56 -291.0000 -432.0000
57   2.0000 -229.0000
58 352.0000 -261.0000
59 -112.0000 -49.0000
60 -286.0000 -496.0000
DISPLAY_DATA_SECTION:
 1  250  250
 2  326  244
 3   90   37
 4  281    3
 5  264   19
 6  307  282
 7  445  360
 8  409  202
 9  277  345
10   42  175
11  321  202
12   74  210
13  214  283
14  495   57
15   90  462
16  256  460
17  328   73
18  419  418
19   11  371
20  497  430
21   87  462
22   61  379
23  256  142
24  467  443
25  475  104
26   80  483
27  330  355
28  371  249
29  307  432
30  110   99
31  162  154
32  187  268
33  433  192
34  161    5
35  350  276
36  480  150
37   28  485
38  398  312
39  113  492
40  200  150
41   52  397
42   13  215
43   22    4
44  317  250
45  212  331
46  186   59
47  278  211
48   23  211
49   19  392
50  474  295
51   33  318
52  433   10
53  302  421
54   97  223
55  388  318
56  104   34
57  251  135
58  426  119
59  194  225
60  107    2
DEMAND_SECTION
1 0
2 -1
3 4
4 6
5 -5
6 7
7 7
8 2
9 -4
10 7
11 0
12 -9
13 2
14 6
15 -5
16 4
17 1
18 6
19 6
20 -9
21 -6
22 -3
23 7
24 7
25 6
26 -6
27 0
28 0
29 -10
30 -1
31 2
32 9
33 -5
34 2
35 -9
36 -8
37 0
38 -1
39 1
40 -8
41 -10
42 -6
43 5
44 -7
45 8
46 -5
47 8
48 -3
49 0
50 1
51 1
52 -8
53 -1
54 3
55 -5
56 2
57 1
58 6
59 8
60 0
EOF